c preprocessed version of 1i07_graph, 51 vertices, 362 edges
p td 51 362
1 0
12 0
14 0
0 31
0 16
0 30
0 32
0 11
0 18
0 17
0 2
34 0
33 0
40 0
1 2
1 21
1 9
1 22
24 1
26 1
19 1
27 1
3 2
5 2
9 2
8 2
2 11
19 2
2 18
12 2
15 2
14 2
2 31
2 13
2 16
2 30
2 32
2 17
33 2
42 2
40 2
38 2
4 3
7 3
8 3
10 3
3 11
3 18
3 9
3 5
19 3
33 3
37 3
39 3
41 3
42 3
40 3
38 3
4 5
6 4
4 9
4 11
4 18
4 20
4 10
4 8
4 7
28 4
19 4
27 4
42 4
6 5
7 5
8 5
10 5
5 11
5 18
5 20
5 9
24 5
19 5
27 5
37 5
42 5
38 5
6 7
6 20
28 6
19 6
27 6
29 6
7 8
7 11
7 18
7 20
7 10
19 7
37 7
42 7
8 9
8 11
8 18
8 10
19 8
37 8
41 8
42 8
38 8
10 9
9 11
9 12
9 21
9 20
24 9
19 9
27 9
29 9
10 11
41 10
42 10
12 11
14 11
17 11
18 11
11 30
11 32
19 11
33 11
37 11
39 11
42 11
40 11
38 11
12 13
12 16
12 32
12 14
12 15
40 12
14 13
17 13
32 13
30 13
16 13
13 31
35 13
33 13
39 13
40 13
38 13
15 14
14 16
14 30
14 32
40 14
15 16
15 32
17 16
32 16
30 16
16 31
35 16
34 16
40 16
17 18
17 31
17 30
17 32
34 17
33 17
39 17
42 17
40 17
38 17
19 18
18 30
33 18
37 18
42 18
40 18
38 18
19 20
19 21
24 19
26 19
28 19
19 25
19 29
19 27
20 21
24 20
28 20
27 20
29 20
22 21
23 21
24 21
28 21
27 21
25 21
29 21
22 23
24 22
26 22
27 22
25 22
24 23
26 23
28 23
27 23
25 23
29 23
24 25
24 29
24 27
24 28
24 26
26 25
27 25
28 25
25 29
26 27
26 28
29 26
28 27
27 29
28 29
30 31
32 30
34 30
33 30
40 30
32 31
35 31
34 31
33 31
39 31
40 31
36 31
38 31
33 32
40 32
33 34
33 38
33 40
33 36
33 37
33 39
33 41
33 42
35 34
40 34
36 34
36 35
37 36
39 36
41 36
42 36
40 36
36 38
37 38
37 40
37 42
37 41
37 39
39 38
41 38
42 38
40 38
39 40
39 42
39 41
41 40
42 40
41 42
43 49
43 0
43 15
43 48
43 47
43 46
43 45
43 50
43 1
43 44
44 49
44 1
44 48
44 47
44 46
44 45
44 50
44 21
44 22
45 50
45 49
45 1
45 48
45 5
45 22
45 47
45 9
45 20
45 21
45 2
45 46
45 24
45 26
45 19
45 27
45 29
46 50
46 49
46 1
46 48
46 22
46 47
46 9
46 12
46 21
46 27
47 50
47 49
47 0
47 1
47 48
47 22
47 11
47 2
47 14
47 15
47 12
47 24
47 19
47 27
48 50
48 49
48 1
48 3
48 9
48 32
48 11
48 2
48 14
48 15
48 12
48 27
49 50
49 1
49 12
49 15
49 2
49 0
49 14
50 1
50 22
50 21
50 23
50 24
50 26
50 27
50 29
